%chk=1_hydroxy_anthraquinone_td.chk
#p td(NStates=10) b3lyp/6-31+g(d) nosymm pop=full

1_hydroxy_anthraquinone TD

0 1
 C                  3.96925026    0.34750834    0.00080492
 C                  2.87371764    1.20490369    0.00028415
 C                  1.57423661    0.68196977   -0.00020934
 C                  1.37521308   -0.70909446   -0.00018515
 C                  2.48351693   -1.56424412    0.00035477
 C                  3.77275108   -1.03914046    0.00085148
 C                  0.41650091    1.61141888   -0.00078595
 C                  0.00434111   -1.31569016   -0.00103352
 C                 -1.16000947   -0.38523837   -0.00037352
 C                 -0.95833619    1.01703738   -0.00024293
 C                 -2.03237939    1.90751107    0.00029307
 H                 -1.82162257    2.97060205    0.00020485
 C                 -3.33556816    1.41692171    0.00082606
 C                 -3.56267496    0.04580877    0.00081443
 C                 -2.49351972   -0.86347509    0.00019110
 H                  4.97678886    0.75412905    0.00117220
 H                  2.99533574    2.28303864    0.00019155
 H                  2.30615222   -2.63439092    0.00031669
 H                  4.62884312   -1.70834426    0.00129926
 H                 -4.17940381    2.10105092    0.00131455
 H                 -4.58095489   -0.33984733    0.00126373
 O                 -0.11989972   -2.53405783   -0.00104049
 O                  0.57554670    2.82797671   -0.00104774
 O                 -2.73017386   -2.19709217    0.00009913
 H                 -3.69116215   -2.33803351    0.00061245

 1 2 2.0 6 1.5 16 1.0
 2 3 1.5 17 1.0
 3 4 1.5 7 1.5
 4 5 1.5 8 1.5
 5 6 2.0 18 1.0
 6 19 1.0
 7 10 1.5 23 2.0
 8 9 1.5 22 2.0
 9 10 1.5 15 1.5
 10 11 1.5
 11 12 1.0 13 2.0
 12
 13 14 1.5 20 1.0
 14 15 2.0 21 1.0
 15 24 1.0
 16
 17
 18
 19
 20
 21
 22
 23
 24 25 1.0
 25
  
