%chk=3_CH3_opt.chk
#p opt=tight b3lyp/6-31g(d) geom=connectivity

opt

0 1
 C                 -3.24110502   -1.55976149    0.02873421
 H                 -4.30952088   -1.55833294    0.08691921
 C                 -2.56017194   -0.38813805    0.04272358
 H                 -1.49175621   -0.38956650   -0.01546392
 C                 -3.32410442    0.94530830    0.14236292
 H                 -4.39252023    0.94673680    0.20054909
 C                 -2.64317144    2.11693181    0.15635059
 H                 -1.57475568    2.11550334    0.09816367
 C                 -3.40710384    3.45037810    0.25599146
 H                 -4.47551980    3.45180672    0.31417482
 C                 -2.72617062    4.62200142    0.26998348
 H                 -1.65775456    4.62057271    0.21180201
 C                 -2.47717257   -2.89320782   -0.07090568
 H                 -3.08471611   -3.61552161   -0.57494302
 H                 -1.57052001   -2.74471647   -0.61938672
 H                 -2.24549735   -3.24587081    0.91238238
 C                 -3.49010318    5.95544783    0.36962134
 H                 -3.61228747    6.22044145    1.39906263
 H                 -2.93730500    6.72159623   -0.13270407
 H                 -4.45150139    5.85079132   -0.08826566

 1 2 1.0 3 2.0 13 1.0
 2
 3 4 1.0 5 1.0
 4
 5 6 1.0 7 2.0
 6
 7 8 1.0 9 1.0
 8
 9 10 1.0 11 2.0
 10
 11 12 1.0 17 1.0
 12
 13 14 1.0 15 1.0 16 1.0
 14
 15
 16
 17 18 1.0 19 1.0 20 1.0
 18
 19
 20

