%chk=3_pp_opt.chk
#p opt b3lyp/6-31g(d,p) geom=connectivity SCF=tight

Title Card Required

1 1
 C                 -4.92914070   -1.04458891    0.44062604
 H                 -5.93005743   -0.98468292    0.81409219
 C                 -4.27327538    0.08389226    0.07601947
 H                 -3.27235810    0.02398642   -0.29744523
 C                 -4.96854513    1.45247722    0.19920718
 H                 -5.96946192    1.51238319    0.57267317
 C                 -4.31267864    2.58095871   -0.16539630
 H                 -3.31176039    2.52105313   -0.53885845
 C                 -4.23387170   -2.41317407    0.31743636
 H                 -3.23295619   -2.47308039   -0.05603301
 C                 -4.88973783   -3.54165547    0.68204078
 H                 -5.89065311   -3.48174909    1.05551076
 N                 -4.38189296    5.02673083   -0.39023642
 C                 -5.00794819    3.94954372   -0.04220808
 H                 -6.00886656    4.00944926    0.33125375
 N                 -4.22607366   -4.84803266    0.56444618
 C                 -5.23306181   -5.88794269    0.30859076
 H                 -4.74998653   -6.83884310    0.22299469
 H                 -5.93198025   -5.91455832    1.11834667
 H                 -5.75019643   -5.66736797   -0.60180398
 C                 -3.26587730   -4.81146727   -0.54802221
 H                 -3.78301192   -4.59089255   -1.45841695
 H                 -2.53289953   -4.05452596   -0.36178731
 H                 -2.78280202   -5.76236768   -0.63361828
 C                 -3.00680122    4.94443022   -0.90331471
 H                 -2.51149802    4.10438028   -0.46298432
 H                 -3.02926712    4.82806945   -1.96673158
 H                 -2.47872141    5.84093504   -0.65369336
 C                 -5.04555830    6.33310771   -0.27264489
 H                 -4.85047874    6.74646658    0.69481488
 H                 -4.66868671    6.99365720   -1.02533485
 H                 -6.10058557    6.21009954   -0.40182086

 1 2 1.0 3 2.0 9 1.0
 2
 3 4 1.0 5 1.0
 4
 5 6 1.0 7 2.0
 6
 7 8 1.0 14 1.0
 8
 9 10 1.0 11 2.0
 10
 11 12 1.0 16 1.0
 12
 13 14 2.0 25 1.0 29 1.0
 14 15 1.0
 15
 16 17 1.0 21 1.0
 17 18 1.0 19 1.0 20 1.0
 18
 19
 20
 21 22 1.0 23 1.0 24 1.0
 22
 23
 24
 25 26 1.0 27 1.0 28 1.0
 26
 27
 28
 29 30 1.0 31 1.0 32 1.0
 30
 31
 32

