%chk=6_pp_opt.chk
#p opt b3lyp/6-31g(d,p) geom=connectivity scf=tight

opt

1 1
 C                 -2.55073529    0.19572307    0.01874347
 H                 -3.57923975    0.28075040    0.30128976
 C                 -1.83530935    1.30781211   -0.27788805
 H                 -0.80676909    1.22270899   -0.56037178
 C                 -2.50261826    2.69396981   -0.20842753
 H                 -3.53116560    2.77899997    0.07394714
 C                 -1.88340446   -1.19042501   -0.05084002
 H                 -0.85491501   -1.27548675   -0.33349809
 C                 -2.59876920   -2.30252122    0.24595145
 H                 -3.62723612   -2.21745021    0.52873322
 N                 -1.96177732   -3.62565925    0.17939496
 C                 -1.78719011    3.80608794   -0.50495474
 H                 -0.75859409    3.72107620   -0.78716451
 C                 -2.45469771    5.19219475   -0.43576184
 H                 -3.48332647    5.27712402   -0.15373775
 C                 -1.73929339    6.30440190   -0.73200550
 H                 -0.71058615    6.21953702   -1.01395997
 C                 -2.40690269    7.69042986   -0.66278251
 H                 -3.43570371    7.77519451   -0.38110925
 C                 -1.69149577    8.80278618   -0.95855374
 H                 -0.66274760    8.71807059   -1.24035129
 C                 -2.35928939   10.18873996   -0.88897818
 H                 -3.38814429   10.27331718   -0.60755941
 C                 -1.64388287   11.30125264   -1.18409174
 H                 -0.61506369   11.21668260   -1.46568746
 N                 -1.62888456   13.74920150   -1.39511786
 C                 -2.31174260   12.68710275   -1.11410033
 H                 -3.34073784   12.77149408   -0.83296158
 C                 -2.26644044   15.07204521   -1.32798345
 H                 -1.75235706   15.67987064   -0.61302434
 H                 -2.22236831   15.53844996   -2.28997318
 H                 -3.28866707   14.96070083   -1.03208628
 C                 -0.21532216   13.63337800   -1.78154543
 H                  0.33509834   13.17406592   -0.98720943
 H                 -0.13484069   13.03406956   -2.66429802
 H                  0.18269499   14.60769169   -1.97440595
 C                 -2.96879887   -4.63707564   -0.17252049
 H                 -2.50537372   -5.60034140   -0.22002014
 H                 -3.73841825   -4.64780249    0.57076340
 H                 -3.39560641   -4.39928376   -1.12446079
 C                 -0.90512902   -3.60997287   -0.84244079
 H                 -1.28186275   -3.16216460   -1.73823064
 H                 -0.07089896   -3.04374080   -0.48419303
 H                 -0.59350072   -4.61259528   -1.04868360

 1 2 1.0 3 2.0 7 1.0
 2
 3 4 1.0 5 1.0
 4
 5 6 1.0 12 2.0
 6
 7 8 1.0 9 2.0
 8
 9 10 1.0 11 1.0
 10
 11 37 1.0 41 1.0
 12 13 1.0 14 1.0
 13
 14 15 1.0 16 2.0
 15
 16 17 1.0 18 1.0
 17
 18 19 1.0 20 2.0
 19
 20 21 1.0 22 1.0
 21
 22 23 1.0 24 2.0
 23
 24 25 1.0 27 1.0
 25
 26 27 2.0 29 1.0 33 1.0
 27 28 1.0
 28
 29 30 1.0 31 1.0 32 1.0
 30
 31
 32
 33 34 1.0 35 1.0 36 1.0
 34
 35
 36
 37 38 1.0 39 1.0 40 1.0
 38
 39
 40
 41 42 1.0 43 1.0 44 1.0
 42
 43
 44

