%chk=C:\Users\Hana\Downloads\6_pp_td.chk
# opt rb3lyp/6-31g(d,p) geom=connectivity

opt

1 1
 C                 -4.89171921   -0.28717041    0.00010289
 H                 -4.79915299   -1.37423923    0.00103907
 C                 -3.71667983    0.45034894   -0.00044409
 H                 -3.77992639    1.53710995   -0.00130973
 C                 -2.44869324   -0.14389416    0.00010843
 H                 -2.40649705   -1.23391729    0.00099155
 C                 -6.19077886    0.24722864   -0.00036304
 H                 -6.31078382    1.32591628   -0.00128037
 C                 -7.30134590   -0.58082711    0.00035040
 H                 -7.14762266   -1.65733590    0.00125778
 N                 -8.58476991   -0.20030014    0.00000271
 C                 -1.23913603    0.54469883   -0.00035531
 H                 -1.25932953    1.63321375   -0.00120505
 C                  0.00001764   -0.09830248    0.00023480
 H                  0.00001803   -1.18905330    0.00108583
 C                  1.23915796    0.54471195   -0.00017308
 H                  1.25935541    1.63322645   -0.00099851
 C                  2.44872235   -0.14387179    0.00042796
 H                  2.40652124   -1.23389443    0.00124836
 C                  3.71669649    0.45037559    0.00008646
 H                  3.77995847    1.53713474   -0.00070401
 C                  4.89173628   -0.28715415    0.00072851
 H                  4.79915044   -1.37422094    0.00159439
 C                  6.19079378    0.24722350    0.00025513
 H                  6.31084886    1.32590381   -0.00085120
 N                  8.58475144   -0.20031769    0.00150679
 C                  7.30134606   -0.58085860    0.00072589
 H                  7.14762414   -1.65736478    0.00059131
 C                  9.67074317   -1.17679496   -0.00331537
 H                 10.29371026   -1.05320438   -0.89554850
 H                 10.30101323   -1.05330632    0.88370973
 H                  9.25909211   -2.18681392   -0.00171950
 C                  8.94772687    1.21557490    0.00154332
 H                  8.56173112    1.71514274   -0.89346870
 H                  8.54647758    1.71817683    0.88794760
 H                 10.03355985    1.30582763    0.01088429
 C                 -9.67074190   -1.17680873    0.00096660
 H                -10.29749531   -1.05402264   -0.88868093
 H                 -9.25904666   -2.18681214    0.00172633
 H                -10.29723299   -1.05255517    0.89059494
 C                 -8.94780693    1.21556980   -0.00130262
 H                 -8.55436968    1.71745658    0.88907823
 H                 -8.55401910    1.71589345   -0.89240789
 H                -10.03368748    1.30576457   -0.00160277

 1 2 1.0 3 2.0 7 1.0
 2
 3 4 1.0 5 1.0
 4
 5 6 1.0 12 2.0
 6
 7 8 1.0 9 2.0
 8
 9 10 1.0 11 1.0
 10
 11 37 1.0 41 1.0
 12 13 1.0 14 1.0
 13
 14 15 1.0 16 2.0
 15
 16 17 1.0 18 1.0
 17
 18 19 1.0 20 2.0
 19
 20 21 1.0 22 1.0
 21
 22 23 1.0 24 2.0
 23
 24 25 1.0 27 1.0
 25
 26 27 2.0 29 1.0 33 1.0
 27 28 1.0
 28
 29 30 1.0 31 1.0 32 1.0
 30
 31
 32
 33 34 1.0 35 1.0 36 1.0
 34
 35
 36
 37 38 1.0 39 1.0 40 1.0
 38
 39
 40
 41 42 1.0 43 1.0 44 1.0
 42
 43
 44

