%chk=4_pp_opt.chk
#p opt b3lyp/6-31g(d,p) geom=connectivity scf=tight

opt

1 1
 C                 -0.62500004   -0.35377358    0.00000000
 H                 -0.60255804   -1.44392658    0.00008600
 C                  0.58112596    0.31949742   -0.00005800
 H                  0.58719596    1.40767542   -0.00013600
 C                  1.80782296   -0.36466558   -0.00003700
 H                  1.76998396   -1.45472058    0.00000000
 C                 -1.90064004    0.26406942   -0.00006700
 H                 -1.94361904    1.34878642   -0.00018100
 C                 -3.02429904   -0.51506458   -0.00001000
 H                 -2.93750704   -1.59887558    0.00006900
 N                 -4.34113104   -0.11820958   -0.00005700
 C                  3.07077182    0.24269109   -0.00009043
 H                  3.14920111    1.30981282    0.00014659
 C                  4.34613560   -0.62047000   -0.00048909
 H                  4.26770631   -1.68759173   -0.00072611
 C                  5.56744879   -0.03313607   -0.00054076
 H                  5.65221687    1.03350087   -0.00059025
 N                  8.03413890   -0.33138405   -0.00071324
 C                  6.83766171   -0.90385941   -0.00052820
 H                  6.95493324   -1.96741354   -0.00051360
 C                  8.18569528    1.13078238   -0.00077706
 H                  7.72244316    1.53733837   -0.87542540
 H                  7.71906391    1.53776490    0.87187429
 H                  9.22589530    1.38154142    0.00117345
 C                  9.27174265   -1.12462862   -0.00062006
 H                  9.85375601   -0.87764054   -0.86384502
 H                  9.83455019   -0.90739986    0.88309897
 H                  9.02776216   -2.16624097   -0.02104631
 C                 -5.36556878   -1.17245211   -0.00011300
 H                 -5.97585070   -1.07670069   -0.87377635
 H                 -4.89064123   -2.13127630   -0.00012968
 H                 -5.97589329   -1.07675282    0.87352631
 C                 -4.79036739    1.28146420   -0.00002914
 H                 -4.41907856    1.77520184    0.87362282
 H                 -4.41910947    1.77522670   -0.87368019
 H                 -5.85990921    1.31277379   -0.00000978

 1 2 1.0 3 2.0 7 1.5
 2
 3 4 1.0 5 1.5
 4
 5 6 1.0 12 2.0
 6
 7 8 1.0 9 2.0
 8
 9 10 1.0 11 1.5
 10
 11 29 1.0 33 1.0
 12 13 1.0 14 1.0
 13
 14 15 1.0 16 2.0
 15
 16 17 1.0 19 1.0
 17
 18 19 2.0 21 1.0 25 1.0
 19 20 1.0
 20
 21 22 1.0 23 1.0 24 1.0
 22
 23
 24
 25 26 1.0 27 1.0 28 1.0
 26
 27
 28
 29 30 1.0 31 1.0 32 1.0
 30
 31
 32
 33 34 1.0 35 1.0 36 1.0
 34
 35
 36

