%chk=2_pp_td.chk
#p td(NStates=10) b3lyp/6-31g(d,p) pop=full

td

1 1
 C                 -0.76261735   -0.37559633    0.00000245
 H                 -0.68784476   -1.46122418    0.00000215
 C                  0.37448428    0.39139266   -0.00000091
 H                  0.34741072    1.47570080   -0.00001051
 C                  1.63098246   -0.25152503    0.00000435
 H                  1.62878537   -1.34161127    0.00000992
 C                  2.85620239    0.39224046   -0.00000025
 H                  2.90612682    1.47824204   -0.00000390
 N                  5.25841060    0.15842769   -0.00000240
 H                  6.07667777   -0.43558770   -0.00000083
 H                  5.41807731    1.15862930   -0.00001068
 C                  4.03999974   -0.35105568    0.00000084
 H                  3.99014231   -1.43780174    0.00001127
 N                 -2.06650183    0.03487310    0.00000112
 C                 -2.49090167    1.40052242    0.00000062
 C                 -3.08937754   -0.99529764   -0.00000051
 H                 -1.65988270    2.11917907    0.00000051
 O                 -3.65104540    1.70989634    0.00000050
 H                 -4.09783852   -0.56989507   -0.00000105
 O                 -2.80116078   -2.16024909   -0.00000394

 1 2 1.0 3 2.0 14 1.0
 2
 3 4 1.0 5 1.0
 4
 5 6 1.0 7 2.0
 6
 7 8 1.0 12 1.0
 8
 9 10 1.0 11 1.0 12 2.0
 10
 11
 12 13 1.0
 13
 14 15 1.0 16 1.0
 15 17 1.0 18 2.0
 16 19 1.0 20 2.0
 17
 18
 19
 20

