%chk=2_pp_opt.chk
#p opt b3lyp/6-31g(d,p) geom=connectivity SCF=tight

opt

1 1
 C                 -5.21993241   -1.19288051   -0.15952172
 H                 -6.28901271   -1.17741216   -0.11795195
 C                 -4.52487570   -0.02949660   -0.15846813
 H                 -3.45579541   -0.04496495   -0.20003800
 C                 -5.27371500    1.31479351   -0.09744497
 H                 -6.34279541    1.33026193   -0.05587809
 C                 -4.57865846    2.47817751   -0.09639560
 H                 -3.50957817    2.46270917   -0.13796576
 N                 -4.66403501    4.93297074   -0.03437923
 C                 -5.32749793    3.82246773   -0.03537716
 H                 -6.39657834    3.83793615    0.00618962
 N                 -4.50513139   -2.47606644   -0.21777442
 C                 -4.21350910   -2.93692572    1.14731354
 H                 -3.60485506   -2.21192617    1.64612805
 H                 -5.13019117   -3.06336098    1.68453611
 H                 -3.69321176   -3.87094542    1.10491191
 C                 -3.24576443   -2.30236566   -0.95582787
 H                 -3.45803372   -1.96691026   -1.94946332
 H                 -2.63711039   -1.57736611   -0.45701335
 H                 -2.72546709   -3.23638535   -0.99822950
 C                 -3.19529845    4.91171978   -0.09148720
 H                 -2.83294850    4.02119927    0.37816771
 H                 -2.87777400    4.93067138   -1.11311289
 H                 -2.80609251    5.76782031    0.41891521
 C                 -5.37883644    6.21615693    0.02386275
 H                 -6.33435478    6.11383329   -0.44668435
 H                 -5.51343332    6.50338916    1.04576358
 H                 -4.80901885    6.96526821   -0.48509718

 1 2 1.0 3 2.0 12 1.0
 2
 3 4 1.0 5 1.0
 4
 5 6 1.0 7 2.0
 6
 7 8 1.0 10 1.0
 8
 9 10 2.0 21 1.0 25 1.0
 10 11 1.0
 11
 12 13 1.0 17 1.0
 13 14 1.0 15 1.0 16 1.0
 14
 15
 16
 17 18 1.0 19 1.0 20 1.0
 18
 19
 20
 21 22 1.0 23 1.0 24 1.0
 22
 23
 24
 25 26 1.0 27 1.0 28 1.0
 26
 27
 28

