%chk=1_nitro_anthraquinone_td.chk
#p td(NStates=10) b3lyp/6-31+g(d) nosymm pop=full

1_nitro_anthraquinone td

0 1
 C                 -4.31491567   -0.41010286    0.08830697
 C                 -3.46314670    0.69106761    0.07892640
 C                 -2.07769090    0.50475918    0.00663957
 C                 -1.54922583   -0.79838577   -0.06361160
 C                 -2.41288650   -1.89979401   -0.06461786
 C                 -3.78936084   -1.70582952    0.01655067
 C                 -1.18567695    1.69382424   -0.00900996
 C                 -0.08287480   -1.03708084   -0.16648851
 C                  0.82034911    0.14810719   -0.02647499
 C                  0.29344650    1.45551108   -0.02396207
 C                  1.14161044    2.56802506   -0.01182019
 H                  0.69113351    3.55460119   -0.00827510
 C                  2.52195942    2.39698006   -0.01154426
 C                  3.06501124    1.11093787   -0.00058419
 C                  2.21463343    0.01141772    0.01300315
 H                 -5.38947755   -0.26262640    0.14864934
 H                 -3.84632717    1.70500237    0.12591645
 H                 -1.98349262   -2.89399634   -0.12913549
 H                 -4.45634511   -2.56323375    0.02241902
 H                  3.18176661    3.25917649   -0.01455140
 H                  4.13849311    0.95417531    0.00769357
 O                  0.36861542   -2.15111087   -0.39095689
 O                 -1.63284528    2.83426176    0.00738695
 N                  2.87586538   -1.30807998    0.13005855
 O                  3.59211098   -1.64808860   -0.80578391
 O                  2.72784384   -1.90670742    1.18747823

 1 2 2.0 6 1.5 16 1.0
 2 3 1.5 17 1.0
 3 4 1.5 7 1.5
 4 5 1.5 8 1.5
 5 6 2.0 18 1.0
 6 19 1.0
 7 10 1.5 23 2.0
 8 9 1.5 22 2.0
 9 10 1.5 15 1.5
 10 11 1.5
 11 12 1.0 13 2.0
 12
 13 14 1.5 20 1.0
 14 15 2.0 21 1.0
 15 24 1.0
 16
 17
 18
 19
 20
 21
 22
 23
 24 25 1.5 26 1.5
 25
 26

