%chk=1_nitro_anthraquinone_opt.chk
#p opt b3lyp/6-31g(d) geom=connectivity int=ultrafine

1_nitro_anthraquinone opt

0 1
 C                 -3.31665632   -3.20307573   -0.04604500
 C                 -1.95203332   -3.20307573   -0.04604500
 C                 -1.21914232   -1.97185473   -0.04604500
 C                 -1.94313932   -0.74010773   -0.05156300
 C                 -3.37537932   -0.78159873   -0.05286300
 C                 -4.03916232   -1.97389173   -0.04949200
 C                  0.17975868   -1.94896573   -0.04114900
 C                 -1.24276232    0.47105927   -0.05328400
 C                  0.15617868    0.49394327   -0.04765900
 C                  0.88014768   -0.73775973   -0.04023900
 C                  2.31232968   -0.69613573   -0.03312900
 H                  2.85819968   -1.65166273   -0.02652800
 C                  2.97606668    0.49621927   -0.03208700
 C                  2.25358368    1.72533427   -0.04025900
 C                  0.88894068    1.72518927   -0.04762600
 H                 -3.88252832   -4.14635373   -0.04364100
 H                 -1.38270732   -4.14480973   -0.04293900
 H                 -3.92119232    0.17394727   -0.05746700
 H                 -5.13856032   -2.01005673   -0.05092300
 H                  4.07547268    0.53212327   -0.02592700
 H                  2.81966368    2.66851127   -0.03916400
 O                 -1.96771351    1.70366425   -0.05882759
 O                  0.90414361   -3.18190328   -0.03553917
 N                  0.12815765    2.98298059   -0.05600400
 O                  0.72498196    4.06716298   -0.05774953
 O                 -0.72428687    2.84702210   -0.94285652

 1 2 2.0 6 1.5 16 1.0
 2 3 1.5 17 1.0
 3 4 1.5 7 1.5
 4 5 1.5 8 1.5
 5 6 2.0 18 1.0
 6 19 1.0
 7 10 1.5 23 2.0
 8 9 1.5 22 2.0
 9 10 1.5 15 1.5
 10 11 1.5
 11 12 1.0 13 2.0
 12
 13 14 1.5 20 1.0
 14 15 2.0 21 1.0
 15 24 1.0
 16
 17
 18
 19
 20
 21
 22
 23
 24 25 1.5 26 1.5
 25
 26

