%chk=benzene.chk
#p b3lyp/6-31g* opt=tight geom=connectivity int=ultrafine

benzene optimization

0 1
 C                 5.8599999999999994 4.1304200000000000 2.0000000000000000
 C                 5.1600000000000001 5.3428599999999999 2.0000000000000000
 C                 3.7599999999999998 5.3428500000000003 2.0000000000000000
 C                 3.0600000000000001 4.1304200000000000 2.0000000000000000
 C                 3.7599999999999998 2.9179800000000000 2.0000000000000000
 C                 5.1600000000000001 2.9179900000000001 2.0000000000000000
 H                 6.9199999999999999 4.1304200000000000 2.0000000000000000
 H                 5.6899999999999995 6.2608400000000000 2.0000000000000000
 H                 3.2300000000000000 6.2608400000000000 2.0000000000000000
 H                 2.0000000000000000 4.1304200000000000 2.0000000000000000
 H                 3.2300000000000000 2.0000000000000000 2.0000000000000000
 H                 5.6899999999999995 2.0000000000000000 2.0000000000000000

 1 2 1.5 6 1.5 7 1.0
 2 3 1.5 8 1.0
 3 4 1.5 9 1.0
 4 5 1.5 10 1.0
 5 6 1.5 11 1.0
 6 12 1.0
 7
 8
 9
 10
 11
 12

