%chk=5_pp_td.chk
#p td(NStates=10) b3lyp/6-31g(d,p) nosymm pop=full

opt

1 1
 C                  3.66723060   -0.28368840    0.00056310
 H                  3.59127902   -1.37203061    0.00063022
 C                  2.47916695    0.43596468    0.00035192
 H                  2.52494129    1.52347937    0.00034988
 C                  1.22366262   -0.17975335    0.00014476
 H                  1.20043852   -1.27037594    0.00020851
 C                  4.95583113    0.27069024    0.00058178
 H                  5.06001674    1.35093827    0.00025871
 C                  6.07964291   -0.54197200    0.00042628
 H                  5.94130946   -1.62057341   -0.00079610
 N                  7.35542877   -0.14267603    0.00179415
 C                  0.00001826    0.48757534   -0.00013269
 H                  0.00002592    1.57613246   -0.00022650
 C                 -1.22363716   -0.17976008   -0.00027431
 H                 -1.20040788   -1.27038304   -0.00014866
 C                 -2.47914394    0.43594769   -0.00055672
 H                 -2.52492179    1.52346246   -0.00071389
 C                 -3.66721992   -0.28370991   -0.00062030
 H                 -3.59126767   -1.37205206   -0.00044754
 C                 -4.95581485    0.27067078   -0.00066447
 H                 -5.05998504    1.35092166   -0.00045856
 N                 -7.35541083   -0.14268732   -0.00143588
 C                 -6.07965169   -0.54198871   -0.00032929
 H                 -5.94132031   -1.62059053    0.00102417
 C                  7.69880638    1.27895093    0.00341036
 H                  7.30744366    1.77305173   -0.89209590
 H                  7.28916027    1.77451113    0.88969779
 H                  8.78320767    1.38377742    0.01468312
 C                  8.45655560   -1.10315052   -0.00453886
 H                  9.08457787   -0.96972991    0.88240766
 H                  8.06051279   -2.11932224   -0.00382139
 H                  9.07647881   -0.96790328   -0.89698300
 C                 -8.45661138   -1.10310600    0.00447437
 H                 -8.06063011   -2.11929611    0.00415895
 H                 -9.07697248   -0.96761652    0.89656774
 H                 -9.08416146   -0.96979096   -0.88283053
 C                 -7.69882570    1.27893920   -0.00320779
 H                 -7.30701445    1.77322035    0.89199325
 H                 -7.28965812    1.77432803   -0.88981331
 H                 -8.78323736    1.38372596   -0.01392131

 1 2 1.0 3 2.0 7 1.5
 2
 3 4 1.0 5 1.5
 4
 5 6 1.0 12 1.5
 6
 7 8 1.0 9 2.0
 8
 9 10 1.0 11 1.0
 10
 11 25 1.0 29 1.0
 12 13 1.0 14 1.0
 13
 14 15 1.0 16 2.0
 15
 16 17 1.0 18 1.0
 17
 18 19 1.0 20 2.0
 19
 20 21 1.0 23 1.0
 21
 22 23 2.0 33 1.0 37 1.0
 23 24 1.0
 24
 25 26 1.0 27 1.0 28 1.0
 26
 27
 28
 29 30 1.0 31 1.0 32 1.0
 30
 31
 32
 33 34 1.0 35 1.0 36 1.0
 34
 35
 36
 37 38 1.0 39 1.0 40 1.0
 38
 39
 40

