%chk=mini_4_pp_td.chk
#p td(NStates=10) b3lyp/6-31g(d) nosymm pop=full

Title Card Required

0 1
 C                 -1.82470240    0.37094586   -0.00015641
 H                 -1.79932125    1.46178013   -0.00007507
 C                 -0.65070855   -0.30864447   -0.00028437
 H                 -0.67744160   -1.39953575   -0.00021769
 C                  0.65070851    0.30861841   -0.00026217
 H                  0.67743346    1.39951061   -0.00021080
 C                  1.82470978   -0.37095295   -0.00010600
 H                  1.79935939   -1.46178748   -0.00004445
 C                  3.13084089    0.24989356    0.00008233
 H                  3.15280706    1.34127674    0.00005880
 C                  4.29732379   -0.42352205    0.00011349
 H                  4.26892094   -1.51450967    0.00014670
 C                 -3.13084732   -0.24987442    0.00000127
 H                 -3.15283490   -1.34125999   -0.00015839
 C                 -4.29732577    0.42355461    0.00007158
 H                 -4.26890515    1.51453952    0.00011464
 C                  5.65710561    0.20598032    0.00016806
 H                  6.23991355   -0.10097171    0.88010148
 H                  6.24004023   -0.10123250   -0.87962273
 H                  5.59542683    1.29950588   -0.00003730
 C                 -5.65710509   -0.20598901    0.00021912
 H                 -6.24041256    0.10175848   -0.87910644
 H                 -5.59541953   -1.29951321   -0.00064597
 H                 -6.23956323    0.10037970    0.88061588

 1 2 1.0 3 2.0 13 1.0
 2
 3 4 1.0 5 1.0
 4
 5 6 1.0 7 2.0
 6
 7 8 1.0 9 1.0
 8
 9 10 1.0 11 2.0
 10
 11 12 1.0 17 1.0
 12
 13 14 1.0 15 2.0
 14
 15 16 1.0 21 1.0
 16
 17 18 1.0 19 1.0 20 1.0
 18
 19
 20
 21 22 1.0 23 1.0 24 1.0
 22
 23
 24

