%chk=mini_6_pp.chk
#p opt b3lyp/6-31g(d) geom=connectivity

Title Card Required

0 1
 C                 -2.52902485   -2.83350463    0.14359734
 H                 -3.59562790   -2.83375657    0.22879042
 C                 -1.85047309   -1.66047469    0.13196425
 H                 -0.78386995   -1.66022276    0.04677216
 C                 -2.61450279   -0.32784865    0.24135555
 H                 -3.68110585   -0.32810063    0.32654849
 C                 -1.93595096    0.84518125    0.22972361
 H                 -0.86934760    0.84543309    0.14453430
 C                 -2.69998022    2.17780711    0.33912031
 H                 -3.76658338    2.17755521    0.42431226
 C                 -2.02142815    3.35083690    0.32749107
 H                 -0.95482506    3.35108884    0.24229850
 C                 -2.78545757    4.68346285    0.43688557
 H                 -3.85206067    4.68321094    0.52207819
 C                 -2.10690533    5.85649256    0.42525787
 H                 -1.04030207    5.85674438    0.34006731
 C                 -1.76499522   -4.16613071    0.03420597
 H                 -0.69839198   -4.16587890   -0.05098483
 C                 -2.44354676   -5.33916073    0.04584289
 H                 -3.51014991   -5.33941255    0.13103471
 C                 -1.67951710   -6.67178692   -0.06354697
 H                 -0.61291390   -6.67153515   -0.14873853
 C                 -2.35806873   -7.84481689   -0.05190989
 H                 -3.42467177   -7.84506867    0.03328333
 C                 -2.87093442    7.18911843    0.53465540
 H                 -2.25239018    7.91623790    1.01797755
 H                 -3.12815938    7.53423106   -0.44495296
 H                 -3.76310506    7.04280170    1.10695159
 C                 -1.59403919   -9.17744311   -0.16129991
 H                 -2.13230734   -9.94103343    0.36032948
 H                 -1.49736543   -9.44961446   -1.19157993
 H                 -0.62159311   -9.06759705    0.27134596

 1 2 1.0 3 2.0 17 1.0
 2
 3 4 1.0 5 1.0
 4
 5 6 1.0 7 2.0
 6
 7 8 1.0 9 1.0
 8
 9 10 1.0 11 2.0
 10
 11 12 1.0 13 1.0
 12
 13 14 1.0 15 2.0
 14
 15 16 1.0 25 1.0
 16
 17 18 1.0 19 2.0
 18
 19 20 1.0 21 1.0
 20
 21 22 1.0 23 2.0
 22
 23 24 1.0 29 1.0
 24
 25 26 1.0 27 1.0 28 1.0
 26
 27
 28
 29 30 1.0 31 1.0 32 1.0
 30
 31
 32

