%chk=mini_5_pp_td.chk
#p td b3lyp/6-31g(d) geom=connectivity pop=full

Title Card Required

0 1
 C                  3.06559482   -0.38046172    0.00000292
 H                  3.04843433   -1.47141228   -0.00001407
 C                  1.88498857    0.29044047    0.00003466
 H                  1.90375324    1.38147951   -0.00005892
 C                  0.59122854   -0.33612398   -0.00001681
 H                  0.57163560   -1.42707455   -0.00009197
 C                 -0.59122853    0.33612400    0.00001632
 H                 -0.57163558    1.42707456    0.00009153
 C                 -1.88498857   -0.29044046   -0.00003511
 H                 -1.90375324   -1.38147951    0.00005821
 C                 -3.06559482    0.38046172   -0.00000298
 H                 -3.04843434    1.47141228    0.00001432
 C                 -4.36576150   -0.25046823    0.00010171
 H                 -4.37935666   -1.34195628    0.00006295
 C                 -5.53788039    0.41407504    0.00000199
 H                 -5.51778970    1.50521827   -0.00002246
 C                  4.36576150    0.25046823   -0.00010172
 H                  4.37935666    1.34195627   -0.00006314
 C                  5.53788039   -0.41407504   -0.00000164
 H                  5.51778970   -1.50521827    0.00002305
 C                  6.89246493    0.22607669    0.00003406
 H                  7.47770777   -0.07638263   -0.87987194
 H                  6.82228153    1.31907475    0.00031197
 H                  7.47781111   -0.07678923    0.87974887
 C                 -6.89246493   -0.22607671   -0.00003358
 H                 -7.47770761    0.07638244    0.87987259
 H                 -7.47781127    0.07678939   -0.87974822
 H                 -6.82228153   -1.31907476   -0.00031173

 1 2 1.0 3 2.0 17 1.0
 2
 3 4 1.0 5 1.0
 4
 5 6 1.0 7 2.0
 6
 7 8 1.0 9 1.0
 8
 9 10 1.0 11 2.0
 10
 11 12 1.0 13 1.0
 12
 13 14 1.0 15 2.0
 14
 15 16 1.0 25 1.0
 16
 17 18 1.0 19 2.0
 18
 19 20 1.0 21 1.0
 20
 21 22 1.0 23 1.0 24 1.0
 22
 23
 24
 25 26 1.0 27 1.0 28 1.0
 26
 27
 28

