%chk=C:\G09W\mine\substituent\mini\mini_1_pp_td.chk
#p td=(nstates=10) b3lyp/6-31g(d) geom=connectivity pop=full scf=tight

Ethylene Geometry Optimization

0 1
 C                  0.03255719   -0.00000140   -0.66693764
 C                 -0.03255719    0.00000140    0.66693764
 H                 -0.90029270   -0.00000493   -1.23410587
 H                  0.90029270    0.00000493    1.23410587
 C                  1.31336420   -0.00000034   -1.47220396
 H                  1.92922325   -0.88274043   -1.25768042
 H                  1.10833042    0.00000428   -2.54748930
 H                  1.92922634    0.88273581   -1.25767325
 C                 -1.31336420    0.00000034    1.47220396
 H                 -1.10833042   -0.00000428    2.54748930
 H                 -1.92922325    0.88274043    1.25768042
 H                 -1.92922634   -0.88273581    1.25767325

 1 2 2.0 3 1.0 5 1.0
 2 4 1.0 9 1.0
 3
 4
 5 6 1.0 7 1.0 8 1.0
 6
 7
 8
 9 10 1.0 11 1.0 12 1.0
 10
 11
 12

