%chk=1_CH3_opt.chk
# opt b3lyp/6-31g(d) geom=connectivity scf=tight

Ethylene Geometry Optimization

0 1
 C                  0.00000000    0.00000000    0.00000000
 C                  0.00000000    0.00000000    1.31000000
 H                 -0.91232498    0.00000000   -0.55907346
 H                  0.91232498    0.00000000    1.86907346
 C                  1.31306585    0.00000000   -0.80464779
 H                  1.88072304   -0.87365216   -0.56093234
 H                  1.09007433    0.00000170   -1.85115378
 H                  1.88072479    0.87365050   -0.56093046
 C                 -1.31306585    0.00000000    2.11464779
 H                 -1.09007433   -0.00000112    3.16115378
 H                 -1.88072331    0.87365187    1.87093191
 H                 -1.88072453   -0.87365079    1.87093089

 1 2 2.0 3 1.0 5 1.0
 2 4 1.0 9 1.0
 3
 4
 5 6 1.0 7 1.0 8 1.0
 6
 7
 8
 9 10 1.0 11 1.0 12 1.0
 10
 11
 12

