%chk=2_CH3_opt.chk
#p opt b3lyp/6-31g(d) geom=connectivity 

Title Card Required

0 1
 C                 -5.06166579   -1.00992719   -0.00725330
 H                 -6.13037264   -1.01020522    0.04533562
 C                 -4.38451399    0.16380604   -0.02681816
 H                 -3.31580717    0.16408408   -0.07940766
 C                 -5.15316202    1.49719361    0.02664018
 H                 -6.22186868    1.49691553    0.07923299
 C                 -4.47601030    2.67092686    0.00707382
 H                 -3.40730359    2.67120493   -0.04551805
 C                 -5.24465848    4.00431447    0.06052898
 H                 -4.54992367    4.81772440    0.03587470
 H                 -5.90199457    4.07105866   -0.78110900
 H                 -5.81611774    4.05060459    0.96396217
 C                 -4.29301756   -2.34331480   -0.06070769
 H                 -3.63566507   -2.41004855    0.78091829
 H                 -4.98775123   -3.15672501   -0.03603034
 H                 -3.72157582   -2.38961510   -0.96415144

 1 2 1.0 3 2.0 13 1.0
 2
 3 4 1.0 5 1.0
 4
 5 6 1.0 7 2.0
 6
 7 8 1.0 9 1.0
 8
 9 10 1.0 11 1.0 12 1.0
 10
 11
 12
 13 14 1.0 15 1.0 16 1.0
 14
 15
 16

