%chk=2_CH3_td.chk
#p td b3lyp/6-31g(d) nosymm geom=connectivity pop=full

Title Card Required

0 1
 C                  1.80212984    0.44073363   -0.00000638
 H                  1.71930272    1.52805554   -0.00001586
 C                  0.66958704   -0.28272148    0.00000366
 H                  0.73380648   -1.37321218    0.00001007
 C                 -0.66958704    0.28272148    0.00000526
 H                 -0.73380648    1.37321218    0.00001548
 C                 -1.80212984   -0.44073363   -0.00000395
 H                 -1.71930272   -1.52805554   -0.00001404
 C                 -3.19557054    0.13800632   -0.00000032
 H                 -3.95486303   -0.64984534   -0.00002472
 H                 -3.37540021    0.76629373    0.88217363
 H                 -3.37538702    0.76633622   -0.88214662
 C                  3.19557054   -0.13800632    0.00000029
 H                  3.37533642   -0.76646329   -0.88206539
 H                  3.95486302    0.64984532   -0.00017882
 H                  3.37545082   -0.76616665    0.88225483

 1 2 1.0 3 2.0 13 1.0
 2
 3 4 1.0 5 1.0
 4
 5 6 1.0 7 2.0
 6
 7 8 1.0 9 1.0
 8
 9 10 1.0 11 1.0 12 1.0
 10
 11
 12
 13 14 1.0 15 1.0 16 1.0
 14
 15
 16

